NAME : 10_3_3_1_(23).dat
COMMENT : Henke, Speranza, Wäscher, 2015
TYPE : MCVRP
DIMENSION : 11
EDGE_WEIGHT_TYPE : DISTANCE_MATRIX
CAPACITY : 1000
VEHICLES : 2
PRODUCT TYPES : 3
COMPARTMENTS : 3
NODE_COORD_SECTION
1 50 50
2 41.39 7.58
3 15.54 9.34
4 31.41 27.75
5 74.55 36.93
6 42.43 32.14
7 11.12 87.3
8 26.15 51.07
9 73.96 26.94
10 0.03 91.55
11 12.59 38.02
DEMAND_SECTION
1 0 0 0
2 0 420 0
3 0 0 280
4 43 0 0
5 62 0 0
6 154 0 0
7 52 0 0
8 54 0 0
9 148 0 0
10 153 0 0
11 35 0 0
DEPOT_SECTION
1
EOF